unknown
(model
; cardinality of BoundSet is 1
(declare-sort BoundSet 0)
; rep: @uc_BoundSet_0
; cardinality of UnboundSet is 1
(declare-sort UnboundSet 0)
(declare-fun groundTerm_2 () UnboundSet)
(define-fun IsIdeologyFor ((BOUND_VARIABLE_391 BoundSet)) Bool true)
(define-fun IsImportantFor ((BOUND_VARIABLE_391 BoundSet)) Bool false)
(define-fun IsMoney ((BOUND_VARIABLE_391 BoundSet)) Bool false)
(define-fun IsHeadlines ((BOUND_VARIABLE_391 BoundSet)) Bool false)
)
sat
(model
; cardinality of BoundSet is 1
(declare-sort BoundSet 0)
; rep: @uc_BoundSet_0
; cardinality of UnboundSet is 1
(declare-sort UnboundSet 0)
(declare-fun groundTerm_4 () UnboundSet)
(define-fun IsIdeologyFor ((BOUND_VARIABLE_412 BoundSet)) Bool true)
(define-fun IsImportantFor ((BOUND_VARIABLE_412 BoundSet)) Bool false)
(define-fun IsMoney ((BOUND_VARIABLE_412 BoundSet)) Bool false)
(define-fun IsHeadlines ((BOUND_VARIABLE_412 BoundSet)) Bool false)
)
